c description: Tseitin formula on , with even charge
c generator: CNFgen (0.9.0)
c copyright: (C) 2012-2020 Massimo Lauria <massimo.lauria@uniroma1.it>
c url: https://massimolauria.net/cnfgen
c
p cnf 20 110
1 2 -3 0
1 -2 3 0
-1 2 3 0
-1 -2 -3 0
4 5 -6 0
4 -5 6 0
-4 5 6 0
-4 -5 -6 0
1 7 8 9 -10 0
1 7 8 -9 10 0
1 7 -8 9 10 0
1 7 -8 -9 -10 0
1 -7 8 9 10 0
1 -7 8 -9 -10 0
1 -7 -8 9 -10 0
1 -7 -8 -9 10 0
-1 7 8 9 10 0
-1 7 8 -9 -10 0
-1 7 -8 9 -10 0
-1 7 -8 -9 10 0
-1 -7 8 9 -10 0
-1 -7 8 -9 10 0
-1 -7 -8 9 10 0
-1 -7 -8 -9 -10 0
7 11 12 -13 0
7 11 -12 13 0
7 -11 12 13 0
7 -11 -12 -13 0
-7 11 12 13 0
-7 11 -12 -13 0
-7 -11 12 -13 0
-7 -11 -12 13 0
2 4 14 -15 0
2 4 -14 15 0
2 -4 14 15 0
2 -4 -14 -15 0
-2 4 14 15 0
-2 4 -14 -15 0
-2 -4 14 -15 0
-2 -4 -14 15 0
8 -16 0
-8 16 0
3 5 14 16 17 -18 0
3 5 14 16 -17 18 0
3 5 14 -16 17 18 0
3 5 14 -16 -17 -18 0
3 5 -14 16 17 18 0
3 5 -14 16 -17 -18 0
3 5 -14 -16 17 -18 0
3 5 -14 -16 -17 18 0
3 -5 14 16 17 18 0
3 -5 14 16 -17 -18 0
3 -5 14 -16 17 -18 0
3 -5 14 -16 -17 18 0
3 -5 -14 16 17 -18 0
3 -5 -14 16 -17 18 0
3 -5 -14 -16 17 18 0
3 -5 -14 -16 -17 -18 0
-3 5 14 16 17 18 0
-3 5 14 16 -17 -18 0
-3 5 14 -16 17 -18 0
-3 5 14 -16 -17 18 0
-3 5 -14 16 17 -18 0
-3 5 -14 16 -17 18 0
-3 5 -14 -16 17 18 0
-3 5 -14 -16 -17 -18 0
-3 -5 14 16 17 -18 0
-3 -5 14 16 -17 18 0
-3 -5 14 -16 17 18 0
-3 -5 14 -16 -17 -18 0
-3 -5 -14 16 17 18 0
-3 -5 -14 16 -17 -18 0
-3 -5 -14 -16 17 -18 0
-3 -5 -14 -16 -17 18 0
9 11 15 19 -20 0
9 11 15 -19 20 0
9 11 -15 19 20 0
9 11 -15 -19 -20 0
9 -11 15 19 20 0
9 -11 15 -19 -20 0
9 -11 -15 19 -20 0
9 -11 -15 -19 20 0
-9 11 15 19 20 0
-9 11 15 -19 -20 0
-9 11 -15 19 -20 0
-9 11 -15 -19 20 0
-9 -11 15 19 -20 0
-9 -11 15 -19 20 0
-9 -11 -15 19 20 0
-9 -11 -15 -19 -20 0
6 10 12 17 -19 0
6 10 12 -17 19 0
6 10 -12 17 19 0
6 10 -12 -17 -19 0
6 -10 12 17 19 0
6 -10 12 -17 -19 0
6 -10 -12 17 -19 0
6 -10 -12 -17 19 0
-6 10 12 17 19 0
-6 10 12 -17 -19 0
-6 10 -12 17 -19 0
-6 10 -12 -17 19 0
-6 -10 12 17 -19 0
-6 -10 12 -17 19 0
-6 -10 -12 17 19 0
-6 -10 -12 -17 -19 0
13 18 -20 0
13 -18 20 0
-13 18 20 0
-13 -18 -20 0